; Copyright (c) 2026 The RIINA Authors. All rights reserved.
; Copyright (c) 2026 The RIINA Authors.
; Auto-generated from 02_FORMAL/coq/domains/RadiationHardening.v (20 assertions)
; Generated by scripts/generate-full-stack.py
; Module: RadiationHardening

(set-logic ALL)
(set-option :produce-models true)

; SystemMode (matches Coq: Inductive SystemMode)
(declare-datatypes ((SystemMode 0)) (((NormalMode) (SafeMode) (RecoveryMode))))

; ECCWord (matches Coq: Record ECCWord)
(declare-datatypes ((ECCWord 0))
  (((mk-ecc_word (ecc_data Word) (ecc_parity Word)))))

; Watchdog (matches Coq: Record Watchdog)
(declare-datatypes ((Watchdog 0))
  (((mk-watchdog (wd_counter Int) (wd_timeout Int) (wd_last_kick Int)))))

; Checkpoint (matches Coq: Record Checkpoint)
(declare-datatypes ((Checkpoint 0))
  (((mk-checkpoint (cp_state Int) (cp_timestamp Int) (cp_valid Bool)))))

; CFSignature (matches Coq: Record CFSignature)
(declare-datatypes ((CFSignature 0))
  (((mk-cf_signature (cfs_expected_next list) (cfs_current Int)))))

; StackFrame (matches Coq: Record StackFrame)
(declare-datatypes ((StackFrame 0))
  (((mk-stack_frame (sf_canary Int) (sf_data Int) (sf_expected_canary Int)))))

; ScrubState (matches Coq: Record ScrubState)
(declare-datatypes ((ScrubState 0))
  (((mk-scrub_state (scrub_last_addr Int) (scrub_errors_found Int) (scrub_errors_corrected Int)))))

; NVersionResult (matches Coq: Record NVersionResult)
(declare-datatypes ((NVersionResult 0))
  (((mk-n_version_result (nvr_results list) (nvr_agreement_threshold Int)))))

; Probability (matches Coq: Record Probability)
(declare-datatypes ((Probability 0))
  (((mk-probability (prob_num Int) (prob_denom Int)))))

; RecoveryMetrics (matches Coq: Record RecoveryMetrics)
(declare-datatypes ((RecoveryMetrics 0))
  (((mk-recovery_metrics (rm_mttr Int) (rm_requirement Int)))))

; CriticalData (matches Coq: Record CriticalData)
(declare-datatypes ((CriticalData 0))
  (((mk-critical_data (cd_primary Int) (cd_backup1 Int) (cd_backup2 Int) (cd_checksum Int)))))

; flip_bit (matches Coq: Definition flip_bit)
(define-fun flip_bit ((b Bit)) Bit
  (not b))

; majority_vote (matches Coq: Definition majority_vote)
(define-fun majority_vote () Bool true)

; tmr_errors (matches Coq: Definition tmr_errors)
(define-fun tmr_errors () Int true)

; ecc_syndrome (matches Coq: Definition ecc_syndrome)
(define-fun ecc_syndrome ((e ECCWord)) Int
  true)

; watchdog_expired (matches Coq: Definition watchdog_expired)
(define-fun watchdog_expired ((wd Watchdog) (current_time Int)) Bool
  Nat)

; cf_valid (matches Coq: Definition cf_valid)
(define-fun cf_valid ((cfs CFSignature) (actual_next Int)) Bool
  true)

; canary_valid (matches Coq: Definition canary_valid)
(define-fun canary_valid ((sf StackFrame)) Bool
  Nat)

; mode_eqb (matches Coq: Definition mode_eqb)
(define-fun mode_eqb () Bool true)

; count_agreements (matches Coq: Definition count_agreements)
(define-fun count_agreements ((value Int)) Int
  true)

; prob_lt (matches Coq: Definition prob_lt)
(define-fun prob_lt () Bool Nat)

; recovery_within_bound (matches Coq: Definition recovery_within_bound)
(define-fun recovery_within_bound ((rm RecoveryMetrics)) Bool
  Nat)

; cd_consistent (matches Coq: Definition cd_consistent)
(define-fun cd_consistent ((cd CriticalData)) Bool
  true)

; cd_recover (matches Coq: Definition cd_recover)
(define-fun cd_recover ((cd CriticalData)) Int
  true)

; scrub_effective (matches Coq: Definition scrub_effective)
(define-fun scrub_effective ((ss ScrubState)) Bool
  Nat)

; seu_response (matches Coq: Definition seu_response)
(define-fun seu_response ((seu_detected Bool) (current_mode SystemMode)) SystemMode
  true)

; DOMAIN_001_01 (matches Coq: Theorem DOMAIN_001_01)
(assert (= true true)) ; DOMAIN_001_01 [untranslatable]

; DOMAIN_001_02 (matches Coq: Theorem DOMAIN_001_02)
(assert (= true true)) ; DOMAIN_001_02 [untranslatable]

; DOMAIN_001_03 (matches Coq: Theorem DOMAIN_001_03)
(assert (= true true)) ; DOMAIN_001_03 [untranslatable]

; DOMAIN_001_04 (matches Coq: Theorem DOMAIN_001_04)
(assert (forall ((w Word)) (= (hamming_distance w w) 0))) ; DOMAIN_001_04

; DOMAIN_001_05 (matches Coq: Theorem DOMAIN_001_05)
(assert (= true true)) ; DOMAIN_001_05 [untranslatable]

; DOMAIN_001_06 (matches Coq: Theorem DOMAIN_001_06)
(assert (= true true)) ; DOMAIN_001_06 [untranslatable]

; DOMAIN_001_07 (matches Coq: Theorem DOMAIN_001_07)
(assert (= true true)) ; DOMAIN_001_07 [untranslatable]

; DOMAIN_001_08 (matches Coq: Theorem DOMAIN_001_08)
(assert (= true true)) ; DOMAIN_001_08 [untranslatable]

; DOMAIN_001_09 (matches Coq: Theorem DOMAIN_001_09)
(assert (= true true)) ; DOMAIN_001_09 [untranslatable]

; DOMAIN_001_09_corrupted (matches Coq: Theorem DOMAIN_001_09_corrupted)
(assert (= true true)) ; DOMAIN_001_09_corrupted [untranslatable]

; DOMAIN_001_10 (matches Coq: Theorem DOMAIN_001_10)
(assert (= true true)) ; DOMAIN_001_10 [untranslatable]

; DOMAIN_001_11 (matches Coq: Theorem DOMAIN_001_11)
(assert (forall ((current_mode SystemMode)) (= (seu_response true current_mode) SafeMode))) ; DOMAIN_001_11

; DOMAIN_001_12 (matches Coq: Theorem DOMAIN_001_12)
(assert (= true true)) ; DOMAIN_001_12 [untranslatable]

; DOMAIN_001_13 (matches Coq: Theorem DOMAIN_001_13)
(assert (= true true)) ; DOMAIN_001_13 [untranslatable]

; DOMAIN_001_14 (matches Coq: Theorem DOMAIN_001_14)
(assert (= true true)) ; DOMAIN_001_14 [untranslatable]

; DOMAIN_001_15 (matches Coq: Theorem DOMAIN_001_15)
(assert (= true true)) ; DOMAIN_001_15 [untranslatable]

; DOMAIN_001_15_single_corruption (matches Coq: Theorem DOMAIN_001_15_single_corruption)
(assert (= true true)) ; DOMAIN_001_15_single_corruption [untranslatable]

; DOMAIN_001_16 (matches Coq: Theorem DOMAIN_001_16)
(assert (forall ((b Bool)) (= (majority_vote b b b) b))) ; DOMAIN_001_16

; DOMAIN_001_17 (matches Coq: Theorem DOMAIN_001_17)
(assert (= true true)) ; DOMAIN_001_17 [untranslatable]

; DOMAIN_001_18 (matches Coq: Theorem DOMAIN_001_18)
(assert (= true true)) ; DOMAIN_001_18 [untranslatable]

; Verify all assertions are satisfiable
(check-sat)
(exit)
